p cnf 197 865
97 122 171 0
100 107 0
87 94 105 120 0
116 145 0
84 124 149 0
80 90 127 132 0
101 159 0
137 139 140 0
83 118 143 0
86 111 135 0
53 78 0
115 134 0
68 110 0
71 112 0
62 64 66 76 0
58 60 91 0
81 109 0
54 57 95 164 0
69 75 0
98 121 130 0
72 99 106 117 0
74 144 0
85 146 147 150 0
67 154 0
61 128 157 158 0
59 92 136 0
102 160 0
55 70 163 166 0
123 131 167 0
113 168 169 170 0
173 175 176 177 0
108 178 180 0
73 89 182 0
126 148 152 183 0
133 184 185 0
104 161 0
142 186 188 189 0
119 190 0
56 96 165 191 193 0
-122 -192 0
-79 -192 0
-107 -192 0
-84 -192 0
-79 -122 0
-107 -122 0
-84 -122 0
-79 -107 0
-79 -84 0
-84 -107 0
-155 -194 0
-127 -194 0
-137 -194 0
-194 -195 0
-127 -155 0
-137 -155 0
-155 -195 0
-127 -137 0
-127 -195 0
-137 -195 0
-66 -112 0
-60 -112 0
-112 -141 0
-112 -164 0
-60 -66 0
-66 -141 0
-66 -164 0
-60 -141 0
-60 -164 0
-141 -164 0
-69 -130 0
-69 -172 0
-69 -117 0
-69 -146 0
-130 -172 0
-117 -130 0
-130 -146 0
-117 -172 0
-146 -172 0
-117 -146 0
-77 -197 0
-184 -197 0
-186 -197 0
-96 -197 0
-77 -184 0
-77 -186 0
-77 -96 0
-184 -186 0
-96 -184 0
-96 -186 0
-192 -194 0
-112 -192 0
-69 -192 0
-192 -197 0
-112 -194 0
-69 -194 0
-194 -197 0
-69 -112 0
-112 -197 0
-69 -197 0
-122 -155 0
-66 -122 0
-122 -130 0
-77 -122 0
-66 -155 0
-130 -155 0
-77 -155 0
-66 -130 0
-66 -77 0
-77 -130 0
-79 -127 0
-60 -79 0
-79 -172 0
-79 -184 0
-60 -127 0
-127 -172 0
-127 -184 0
-60 -172 0
-60 -184 0
-172 -184 0
-107 -137 0
-107 -141 0
-107 -117 0
-107 -186 0
-137 -141 0
-117 -137 0
-137 -186 0
-117 -141 0
-141 -186 0
-117 -186 0
-84 -195 0
-84 -164 0
-84 -146 0
-84 -96 0
-164 -195 0
-146 -195 0
-96 -195 0
-146 -164 0
-96 -164 0
-96 -146 0
-156 -159 0
-139 -156 0
-156 -162 0
-139 -159 0
-159 -162 0
-139 -162 0
-64 -103 0
-64 -187 0
-57 -64 0
-103 -187 0
-57 -103 0
-57 -187 0
-52 -121 0
-106 -121 0
-85 -121 0
-52 -106 0
-52 -85 0
-85 -106 0
-65 -161 0
-65 -142 0
-65 -165 0
-142 -161 0
-161 -165 0
-142 -165 0
-64 -156 0
-121 -156 0
-65 -156 0
-64 -121 0
-64 -65 0
-65 -121 0
-103 -159 0
-52 -159 0
-159 -161 0
-52 -103 0
-103 -161 0
-52 -161 0
-139 -187 0
-106 -139 0
-139 -142 0
-106 -187 0
-142 -187 0
-106 -142 0
-57 -162 0
-85 -162 0
-162 -165 0
-57 -85 0
-57 -165 0
-85 -165 0
-53 -179 0
-53 -88 0
-53 -110 0
-53 -151 0
-88 -179 0
-110 -179 0
-151 -179 0
-88 -110 0
-88 -151 0
-110 -151 0
-51 -76 0
-50 -76 0
-49 -76 0
-76 -95 0
-50 -51 0
-49 -51 0
-51 -95 0
-49 -50 0
-50 -95 0
-49 -95 0
-157 -160 0
-138 -157 0
-48 -157 0
-157 -163 0
-138 -160 0
-48 -160 0
-160 -163 0
-48 -138 0
-138 -163 0
-48 -163 0
-168 -178 0
-73 -168 0
-47 -168 0
-148 -168 0
-73 -178 0
-47 -178 0
-148 -178 0
-47 -73 0
-73 -148 0
-47 -148 0
-63 -104 0
-63 -188 0
-46 -63 0
-56 -63 0
-104 -188 0
-46 -104 0
-56 -104 0
-46 -188 0
-56 -188 0
-46 -56 0
-53 -76 0
-53 -157 0
-53 -168 0
-53 -63 0
-76 -157 0
-76 -168 0
-63 -76 0
-157 -168 0
-63 -157 0
-63 -168 0
-51 -179 0
-160 -179 0
-178 -179 0
-104 -179 0
-51 -160 0
-51 -178 0
-51 -104 0
-160 -178 0
-104 -160 0
-104 -178 0
-50 -88 0
-88 -138 0
-73 -88 0
-88 -188 0
-50 -138 0
-50 -73 0
-50 -188 0
-73 -138 0
-138 -188 0
-73 -188 0
-49 -110 0
-48 -110 0
-47 -110 0
-46 -110 0
-48 -49 0
-47 -49 0
-46 -49 0
-47 -48 0
-46 -48 0
-46 -47 0
-95 -151 0
-151 -163 0
-148 -151 0
-56 -151 0
-95 -163 0
-95 -148 0
-56 -95 0
-148 -163 0
-56 -163 0
-56 -148 0
-43 -45 0
-45 -100 0
-45 -94 0
-45 -149 0
-43 -100 0
-43 -94 0
-43 -149 0
-94 -100 0
-100 -149 0
-94 -149 0
-42 -174 0
-174 -181 0
-115 -174 0
-125 -174 0
-42 -181 0
-42 -115 0
-42 -125 0
-115 -181 0
-125 -181 0
-115 -125 0
-40 -41 0
-41 -72 0
-39 -41 0
-41 -147 0
-40 -72 0
-39 -40 0
-40 -147 0
-39 -72 0
-72 -147 0
-39 -147 0
-92 -102 0
-38 -92 0
-37 -92 0
-55 -92 0
-38 -102 0
-37 -102 0
-55 -102 0
-37 -38 0
-38 -55 0
-37 -55 0
-173 -180 0
-89 -173 0
-36 -173 0
-152 -173 0
-89 -180 0
-36 -180 0
-152 -180 0
-36 -89 0
-89 -152 0
-36 -152 0
-45 -174 0
-41 -45 0
-45 -92 0
-45 -173 0
-41 -174 0
-92 -174 0
-173 -174 0
-41 -92 0
-41 -173 0
-92 -173 0
-42 -43 0
-40 -43 0
-43 -102 0
-43 -180 0
-40 -42 0
-42 -102 0
-42 -180 0
-40 -102 0
-40 -180 0
-102 -180 0
-100 -181 0
-72 -100 0
-38 -100 0
-89 -100 0
-72 -181 0
-38 -181 0
-89 -181 0
-38 -72 0
-72 -89 0
-38 -89 0
-94 -115 0
-39 -94 0
-37 -94 0
-36 -94 0
-39 -115 0
-37 -115 0
-36 -115 0
-37 -39 0
-36 -39 0
-36 -37 0
-125 -149 0
-147 -149 0
-55 -149 0
-149 -152 0
-125 -147 0
-55 -125 0
-125 -152 0
-55 -147 0
-147 -152 0
-55 -152 0
-35 -80 0
-35 -140 0
-35 -143 0
-35 -135 0
-34 -35 0
-80 -140 0
-80 -143 0
-80 -135 0
-34 -80 0
-140 -143 0
-135 -140 0
-34 -140 0
-135 -143 0
-34 -143 0
-34 -135 0
-62 -91 0
-33 -62 0
-62 -81 0
-32 -62 0
-54 -62 0
-33 -91 0
-81 -91 0
-32 -91 0
-54 -91 0
-33 -81 0
-32 -33 0
-33 -54 0
-32 -81 0
-54 -81 0
-32 -54 0
-44 -98 0
-98 -99 0
-93 -98 0
-98 -144 0
-98 -150 0
-44 -99 0
-44 -93 0
-44 -144 0
-44 -150 0
-93 -99 0
-99 -144 0
-99 -150 0
-93 -144 0
-93 -150 0
-144 -150 0
-59 -158 0
-31 -158 0
-30 -158 0
-29 -158 0
-158 -166 0
-31 -59 0
-30 -59 0
-29 -59 0
-59 -166 0
-30 -31 0
-29 -31 0
-31 -166 0
-29 -30 0
-30 -166 0
-29 -166 0
-113 -175 0
-113 -182 0
-113 -114 0
-28 -113 0
-113 -126 0
-175 -182 0
-114 -175 0
-28 -175 0
-126 -175 0
-114 -182 0
-28 -182 0
-126 -182 0
-28 -114 0
-114 -126 0
-28 -126 0
-27 -133 0
-27 -189 0
-27 -119 0
-26 -27 0
-27 -191 0
-133 -189 0
-119 -133 0
-26 -133 0
-133 -191 0
-119 -189 0
-26 -189 0
-189 -191 0
-26 -119 0
-119 -191 0
-26 -191 0
-35 -62 0
-35 -98 0
-35 -158 0
-35 -113 0
-27 -35 0
-62 -98 0
-62 -158 0
-62 -113 0
-27 -62 0
-98 -158 0
-98 -113 0
-27 -98 0
-113 -158 0
-27 -158 0
-27 -113 0
-80 -91 0
-44 -80 0
-59 -80 0
-80 -175 0
-80 -133 0
-44 -91 0
-59 -91 0
-91 -175 0
-91 -133 0
-44 -59 0
-44 -175 0
-44 -133 0
-59 -175 0
-59 -133 0
-133 -175 0
-33 -140 0
-99 -140 0
-31 -140 0
-140 -182 0
-140 -189 0
-33 -99 0
-31 -33 0
-33 -182 0
-33 -189 0
-31 -99 0
-99 -182 0
-99 -189 0
-31 -182 0
-31 -189 0
-182 -189 0
-81 -143 0
-93 -143 0
-30 -143 0
-114 -143 0
-119 -143 0
-81 -93 0
-30 -81 0
-81 -114 0
-81 -119 0
-30 -93 0
-93 -114 0
-93 -119 0
-30 -114 0
-30 -119 0
-114 -119 0
-32 -135 0
-135 -144 0
-29 -135 0
-28 -135 0
-26 -135 0
-32 -144 0
-29 -32 0
-28 -32 0
-26 -32 0
-29 -144 0
-28 -144 0
-26 -144 0
-28 -29 0
-26 -29 0
-26 -28 0
-34 -54 0
-34 -150 0
-34 -166 0
-34 -126 0
-34 -191 0
-54 -150 0
-54 -166 0
-54 -126 0
-54 -191 0
-150 -166 0
-126 -150 0
-150 -191 0
-126 -166 0
-166 -191 0
-126 -191 0
-24 -25 0
-23 -25 0
-25 -105 0
-25 -116 0
-23 -24 0
-24 -105 0
-24 -116 0
-23 -105 0
-23 -116 0
-105 -116 0
-90 -153 0
-101 -153 0
-83 -153 0
-86 -153 0
-90 -101 0
-83 -90 0
-86 -90 0
-83 -101 0
-86 -101 0
-83 -86 0
-58 -71 0
-22 -71 0
-71 -109 0
-21 -71 0
-22 -58 0
-58 -109 0
-21 -58 0
-22 -109 0
-21 -22 0
-21 -109 0
-20 -75 0
-19 -75 0
-18 -75 0
-74 -75 0
-19 -20 0
-18 -20 0
-20 -74 0
-18 -19 0
-19 -74 0
-18 -74 0
-123 -176 0
-108 -123 0
-17 -123 0
-16 -123 0
-108 -176 0
-17 -176 0
-16 -176 0
-17 -108 0
-16 -108 0
-16 -17 0
-25 -153 0
-25 -71 0
-25 -75 0
-25 -123 0
-71 -153 0
-75 -153 0
-123 -153 0
-71 -75 0
-71 -123 0
-75 -123 0
-24 -90 0
-24 -58 0
-20 -24 0
-24 -176 0
-58 -90 0
-20 -90 0
-90 -176 0
-20 -58 0
-58 -176 0
-20 -176 0
-23 -101 0
-22 -23 0
-19 -23 0
-23 -108 0
-22 -101 0
-19 -101 0
-101 -108 0
-19 -22 0
-22 -108 0
-19 -108 0
-83 -105 0
-105 -109 0
-18 -105 0
-17 -105 0
-83 -109 0
-18 -83 0
-17 -83 0
-18 -109 0
-17 -109 0
-17 -18 0
-86 -116 0
-21 -116 0
-74 -116 0
-16 -116 0
-21 -86 0
-74 -86 0
-16 -86 0
-21 -74 0
-16 -21 0
-16 -74 0
-15 -97 0
-15 -87 0
-87 -97 0
-128 -154 0
-82 -154 0
-82 -128 0
-167 -169 0
-14 -167 0
-14 -169 0
-15 -154 0
-15 -167 0
-154 -167 0
-97 -128 0
-97 -169 0
-128 -169 0
-82 -87 0
-14 -87 0
-14 -82 0
-129 -171 0
-13 -129 0
-120 -129 0
-129 -145 0
-124 -129 0
-13 -171 0
-120 -171 0
-145 -171 0
-124 -171 0
-13 -120 0
-13 -145 0
-13 -124 0
-120 -145 0
-120 -124 0
-124 -145 0
-11 -12 0
-12 -132 0
-12 -118 0
-12 -111 0
-10 -12 0
-11 -132 0
-11 -118 0
-11 -111 0
-10 -11 0
-118 -132 0
-111 -132 0
-10 -132 0
-111 -118 0
-10 -118 0
-10 -111 0
-9 -78 0
-8 -9 0
-9 -134 0
-9 -68 0
-9 -196 0
-8 -78 0
-78 -134 0
-68 -78 0
-78 -196 0
-8 -134 0
-8 -68 0
-8 -196 0
-68 -134 0
-134 -196 0
-68 -196 0
-61 -67 0
-67 -136 0
-7 -67 0
-6 -67 0
-67 -70 0
-61 -136 0
-7 -61 0
-6 -61 0
-61 -70 0
-7 -136 0
-6 -136 0
-70 -136 0
-6 -7 0
-7 -70 0
-6 -70 0
-131 -170 0
-131 -177 0
-5 -131 0
-4 -131 0
-131 -183 0
-170 -177 0
-5 -170 0
-4 -170 0
-170 -183 0
-5 -177 0
-4 -177 0
-177 -183 0
-4 -5 0
-5 -183 0
-4 -183 0
-2 -3 0
-3 -185 0
-3 -190 0
-1 -3 0
-3 -193 0
-2 -185 0
-2 -190 0
-1 -2 0
-2 -193 0
-185 -190 0
-1 -185 0
-185 -193 0
-1 -190 0
-190 -193 0
-1 -193 0
-12 -129 0
-9 -129 0
-67 -129 0
-129 -131 0
-3 -129 0
-9 -12 0
-12 -67 0
-12 -131 0
-3 -12 0
-9 -67 0
-9 -131 0
-3 -9 0
-67 -131 0
-3 -67 0
-3 -131 0
-11 -171 0
-78 -171 0
-61 -171 0
-170 -171 0
-2 -171 0
-11 -78 0
-11 -61 0
-11 -170 0
-2 -11 0
-61 -78 0
-78 -170 0
-2 -78 0
-61 -170 0
-2 -61 0
-2 -170 0
-13 -132 0
-8 -13 0
-13 -136 0
-13 -177 0
-13 -185 0
-8 -132 0
-132 -136 0
-132 -177 0
-132 -185 0
-8 -136 0
-8 -177 0
-8 -185 0
-136 -177 0
-136 -185 0
-177 -185 0
-118 -120 0
-120 -134 0
-7 -120 0
-5 -120 0
-120 -190 0
-118 -134 0
-7 -118 0
-5 -118 0
-118 -190 0
-7 -134 0
-5 -134 0
-134 -190 0
-5 -7 0
-7 -190 0
-5 -190 0
-111 -145 0
-68 -145 0
-6 -145 0
-4 -145 0
-1 -145 0
-68 -111 0
-6 -111 0
-4 -111 0
-1 -111 0
-6 -68 0
-4 -68 0
-1 -68 0
-4 -6 0
-1 -6 0
-1 -4 0
-10 -124 0
-124 -196 0
-70 -124 0
-124 -183 0
-124 -193 0
-10 -196 0
-10 -70 0
-10 -183 0
-10 -193 0
-70 -196 0
-183 -196 0
-193 -196 0
-70 -183 0
-70 -193 0
-183 -193 0
